89
73
23
112
9
52
71
27
83
66
95
32
35
10
25
33
117
33
88
153
30
51
46
36
39
26
90
71
113
0
29
26
13
96
0
44
0
43
165
119
115
166
22
77
36
0
171
157
82
166
20
147
0
90
11
0
30
40
77
45
15
80
23
20
150
29
26
90
37
13
182
36
44
0
86
36
65
78
74
0
42
54
31
175
75
43
136
177
34
14
115
45
36
50
68
77
85
0
29
24
